5    8    2
 3  2 7 8 22 2 1 2 20 2 3 4 14
 3  2 5 6 24 2 3 4 20 2 7 8 16
 4  2 3 4 14 2 5 6 20 2 1 2 18 2 5 6 16
 4  2 3 4 14 2 7 8 16 2 1 2 24 2 3 4 12
 5  2 1 2 18 2 3 4 14 2 7 8 16 2 3 4 20 2 5 6 16